unknown
(model
; cardinality of BoundSet is 3
(declare-sort BoundSet 0)
; rep: @uc_BoundSet_0
; rep: @uc_BoundSet_1
; rep: @uc_BoundSet_2
; cardinality of UnboundSet is 1
(declare-sort UnboundSet 0)
(declare-fun groundTerm_4 () UnboundSet)
(define-fun IsLarge ((BOUND_VARIABLE_473 BoundSet)) Bool true)
(define-fun IsBusy ((BOUND_VARIABLE_473 BoundSet)) Bool true)
(define-fun IsAtNight ((BOUND_VARIABLE_473 BoundSet)) Bool true)
(define-fun IsInCity ((BOUND_VARIABLE_473 BoundSet)) Bool false)
(define-fun IsWalk ((BOUND_VARIABLE_473 BoundSet)) Bool false)
)
sat
(model
; cardinality of BoundSet is 1
(declare-sort BoundSet 0)
; rep: @uc_BoundSet_0
; cardinality of UnboundSet is 1
(declare-sort UnboundSet 0)
(declare-fun groundTerm_10 () UnboundSet)
(define-fun IsLarge ((BOUND_VARIABLE_539 BoundSet)) Bool true)
(define-fun IsBusy ((BOUND_VARIABLE_539 BoundSet)) Bool true)
(define-fun IsAtNight ((BOUND_VARIABLE_539 BoundSet)) Bool true)
(define-fun IsInCity ((BOUND_VARIABLE_539 BoundSet)) Bool true)
(define-fun IsWalk ((BOUND_VARIABLE_539 BoundSet)) Bool false)
)
